NAME: instance_657
TYPE: TSP
DIMENSION: 20
EDGE_WEIGHT_TYPE: EUC_2D
NODE_COORD_SECTION
0 4.45 10.97
1 12.97 13.72
2 33.67 32.21
3 63.43 63.99
4 68.89 39.93
5 52.23 37.28
6 54.56 16.71
7 51.96 9.94
8 9.23 25.63
9 29.11 20.19
10 20.49 92.91
11 77.08 9.77
12 41.14 63.81
13 51.31 30.69
14 20.55 63.99
15 60.22 50.56
16 16.25 62.74
17 56.57 50.89
18 52.66 84.31
19 31.47 89.41
EOF
